NAME : instances/50-tsp/instance-14.tsp
COMMENT : No comment
TYPE : TSP
DIMENSION: 50
EDGE_WEIGHT_TYPE : EUC_2D
NODE_COORD_SECTION
1 1376 1985 
2 838 612 
3 1269 148 
4 253 1715 
5 1761 1991 
6 630 431 
7 979 1154 
8 918 871 
9 864 1540 
10 858 1232 
11 1685 1490 
12 588 309 
13 1338 1944 
14 1986 523 
15 691 1966 
16 1333 1727 
17 637 77 
18 1613 212 
19 1473 351 
20 806 495 
21 1125 701 
22 32 1751 
23 875 1031 
24 986 597 
25 804 1098 
26 397 460 
27 1439 374 
28 926 1802 
29 1448 380 
30 508 423 
31 1227 1081 
32 990 1421 
33 1137 111 
34 204 1781 
35 1465 541 
36 526 689 
37 1279 917 
38 578 147 
39 722 1804 
40 454 1835 
41 720 909 
42 1891 1374 
43 1786 514 
44 886 1555 
45 1144 366 
46 1563 970 
47 1492 1606 
48 1091 1501 
49 1074 1771 
50 189 91 
EOF
